<?xml version = "1.0" standalone="yes"?>
<!-- This file has been generated by DOcplex version 2.23.222  -->
<CPLEXSolution version="1.0">
 <header
   problemName="CVRP"
   objectiveValue="12660.5"
  />
 <variables>
  <variable name="x_0_1" index="0" value="1.00000"/>
  <variable name="x_0_2" index="1" value="1.00000"/>
  <variable name="x_0_5" index="4" value="1.00000"/>
  <variable name="x_0_6" index="5" value="1.00000"/>
  <variable name="x_0_8" index="7" value="1.00000"/>
  <variable name="x_0_9" index="8" value="1.00000"/>
  <variable name="x_0_10" index="9" value="1.00000"/>
  <variable name="x_0_12" index="11" value="1.00000"/>
  <variable name="x_0_14" index="13" value="1.00000"/>
  <variable name="x_0_15" index="14" value="1.00000"/>
  <variable name="x_0_16" index="15" value="1.00000"/>
  <variable name="x_0_18" index="17" value="1.00000"/>
  <variable name="x_0_19" index="18" value="1.00000"/>
  <variable name="x_1_0" index="23" value="1.00000"/>
  <variable name="x_2_0" index="46" value="1.00000"/>
  <variable name="x_3_17" index="85" value="1.00000"/>
  <variable name="x_4_0" index="92" value="1.00000"/>
  <variable name="x_5_0" index="115" value="1.00000"/>
  <variable name="x_6_23" index="160" value="1.00000"/>
  <variable name="x_7_0" index="161" value="1.00000"/>
  <variable name="x_8_13" index="196" value="1.00000"/>
  <variable name="x_9_21" index="227" value="1.00000"/>
  <variable name="x_10_0" index="230" value="1.00000"/>
  <variable name="x_11_0" index="253" value="1.00000"/>
  <variable name="x_12_4" index="280" value="1.00000"/>
  <variable name="x_13_7" index="306" value="1.00000"/>
  <variable name="x_14_20" index="341" value="1.00000"/>
  <variable name="x_15_3" index="348" value="1.00000"/>
  <variable name="x_16_0" index="368" value="1.00000"/>
  <variable name="x_17_11" index="402" value="1.00000"/>
  <variable name="x_18_0" index="414" value="1.00000"/>
  <variable name="x_19_22" index="458" value="1.00000"/>
  <variable name="x_20_0" index="460" value="1.00000"/>
  <variable name="x_21_0" index="483" value="1.00000"/>
  <variable name="x_22_0" index="506" value="1.00000"/>
  <variable name="x_23_0" index="529" value="1.00000"/>
  <variable name="u_1" index="552" value="21.00000"/>
  <variable name="u_2" index="553" value="22.00000"/>
  <variable name="u_3" index="554" value="17.00000"/>
  <variable name="u_4" index="555" value="16.00000"/>
  <variable name="u_5" index="556" value="21.00000"/>
  <variable name="u_6" index="557" value="12.00000"/>
  <variable name="u_7" index="558" value="22.00000"/>
  <variable name="u_8" index="559" value="2.00000"/>
  <variable name="u_9" index="560" value="10.00000"/>
  <variable name="u_10" index="561" value="21.00000"/>
  <variable name="u_11" index="562" value="22.00000"/>
  <variable name="u_12" index="563" value="9.00000"/>
  <variable name="u_13" index="564" value="14.00000"/>
  <variable name="u_14" index="565" value="14.00000"/>
  <variable name="u_15" index="566" value="15.00000"/>
  <variable name="u_16" index="567" value="22.00000"/>
  <variable name="u_17" index="568" value="19.00000"/>
  <variable name="u_18" index="569" value="22.00000"/>
  <variable name="u_19" index="570" value="17.00000"/>
  <variable name="u_20" index="571" value="22.00000"/>
  <variable name="u_21" index="572" value="22.00000"/>
  <variable name="u_22" index="573" value="22.00000"/>
  <variable name="u_23" index="574" value="21.00000"/>
 </variables>
</CPLEXSolution>
